#######################################
### Exact MIP solver for the HHCRSP ###
#######################################
-- Instance file: new-instances/HHCRSP_50_10_77_1.2_C_C.txt
-- Max threads: 4
-- Time limit: 999999 seconds
-- Use initial solution: No
Trivial flow violations prevented generating 6390 variables.
Model exported.
Version identifier: 20.1.0.0 | 2020-11-10 | 9bedb6d68
CPXPARAM_Threads                                 4
CPXPARAM_TimeLimit                               999999
Parallel mode: deterministic, using up to 4 threads for concurrent optimization:
 * Starting dual Simplex on 1 thread...
 * Starting Barrier on 3 threads...
Tried aggregator 1 time.
LP Presolve eliminated 1710 rows and 517 columns.
Reduced LP has 9646 rows, 9264 columns, and 89041 nonzeros.
Presolve time = 0.04 sec. (24.85 ticks)
Symmetry aggregator did 11244 additional substitutions.

Iteration log . . .
Iteration:     1   Dual objective     =             0.000000

Dual crossover.
  Dual:  Fixing 68 variables.
       67 DMoves:  Infeasibility  2.99205178e-14  Objective  7.26666667e+01
        0 DMoves:  Infeasibility  1.53210850e-14  Objective  7.26666667e+01
  Dual:  Pushed 1, exchanged 67.
  Primal:  Fixing 72 variables.
       71 PMoves:  Infeasibility  4.44089210e-16  Objective  7.26666667e+01
        0 PMoves:  Infeasibility  6.38378239e-16  Objective  7.26666667e+01
  Primal:  Pushed 51, exchanged 21.

Dual simplex solved model.


Solution status from MIP model:
-- Processing time: 0.078 sec.
-- Memory used: 74.6699 MB
-- Best bound: inf
-- Obj value: 72.6667
-- Gap: inf%
-- Total distance: 218
-- Total tardiness: 0
-- Largest tardiness: 0
